(set-info :smt-lib-version 2.6)
(set-logic QF_LRA)
(set-info :source |
TLP-GP automated DTP to SMT-LIB encoding for planning
by F.Maris and P.Regnier, IRIT - Universite Paul Sabatier, Toulouse

|)
(set-info :category "industrial")
(set-info :status sat)
(declare-fun St_spy_variable () Real)
(declare-fun t_Init_0 () Real)
(declare-fun t_Goal_91 () Real)
(declare-fun t_C_N29_87 () Real)
(declare-fun t_B_N29_86 () Real)
(declare-fun t_C_N28_84 () Real)
(declare-fun t_B_N28_83 () Real)
(declare-fun t_C_N27_81 () Real)
(declare-fun t_B_N27_80 () Real)
(declare-fun t_C_N26_78 () Real)
(declare-fun t_B_N26_77 () Real)
(declare-fun t_C_N25_75 () Real)
(declare-fun t_B_N25_74 () Real)
(declare-fun t_C_N24_72 () Real)
(declare-fun t_B_N24_71 () Real)
(declare-fun t_C_N23_69 () Real)
(declare-fun t_B_N23_68 () Real)
(declare-fun t_C_N22_66 () Real)
(declare-fun t_B_N22_65 () Real)
(declare-fun t_C_N21_63 () Real)
(declare-fun t_B_N21_62 () Real)
(declare-fun t_C_N20_60 () Real)
(declare-fun t_B_N20_59 () Real)
(declare-fun t_C_N19_57 () Real)
(declare-fun t_B_N19_56 () Real)
(declare-fun t_C_N18_54 () Real)
(declare-fun t_B_N18_53 () Real)
(declare-fun t_C_N17_51 () Real)
(declare-fun t_B_N17_50 () Real)
(declare-fun t_C_N16_48 () Real)
(declare-fun t_B_N16_47 () Real)
(declare-fun t_C_N15_45 () Real)
(declare-fun t_B_N15_44 () Real)
(declare-fun t_C_N14_42 () Real)
(declare-fun t_B_N14_41 () Real)
(declare-fun t_C_N13_39 () Real)
(declare-fun t_B_N13_38 () Real)
(declare-fun t_C_N12_36 () Real)
(declare-fun t_B_N12_35 () Real)
(declare-fun t_C_N11_33 () Real)
(declare-fun t_B_N11_32 () Real)
(declare-fun t_C_N10_30 () Real)
(declare-fun t_B_N10_29 () Real)
(declare-fun t_C_N9_27 () Real)
(declare-fun t_B_N9_26 () Real)
(declare-fun t_C_N8_24 () Real)
(declare-fun t_B_N8_23 () Real)
(declare-fun t_C_N7_21 () Real)
(declare-fun t_B_N7_20 () Real)
(declare-fun t_C_N6_18 () Real)
(declare-fun t_B_N6_17 () Real)
(declare-fun t_C_N5_15 () Real)
(declare-fun t_B_N5_14 () Real)
(declare-fun t_C_N4_12 () Real)
(declare-fun t_B_N4_11 () Real)
(declare-fun t_C_N3_9 () Real)
(declare-fun t_B_N3_8 () Real)
(declare-fun t_C_N2_6 () Real)
(declare-fun t_B_N2_5 () Real)
(declare-fun t_C_N1_3 () Real)
(declare-fun t_B_N1_2 () Real)
(declare-fun t_A_N1_1 () Real)
(declare-fun t_A_N2_4 () Real)
(declare-fun t_A_N3_7 () Real)
(declare-fun t_A_N4_10 () Real)
(declare-fun t_A_N5_13 () Real)
(declare-fun t_A_N6_16 () Real)
(declare-fun t_A_N7_19 () Real)
(declare-fun t_A_N8_22 () Real)
(declare-fun t_A_N9_25 () Real)
(declare-fun t_A_N10_28 () Real)
(declare-fun t_A_N11_31 () Real)
(declare-fun t_A_N12_34 () Real)
(declare-fun t_A_N13_37 () Real)
(declare-fun t_A_N14_40 () Real)
(declare-fun t_A_N15_43 () Real)
(declare-fun t_A_N16_46 () Real)
(declare-fun t_A_N17_49 () Real)
(declare-fun t_A_N18_52 () Real)
(declare-fun t_A_N19_55 () Real)
(declare-fun t_A_N20_58 () Real)
(declare-fun t_A_N21_61 () Real)
(declare-fun t_A_N22_64 () Real)
(declare-fun t_A_N23_67 () Real)
(declare-fun t_A_N24_70 () Real)
(declare-fun t_A_N25_73 () Real)
(declare-fun t_A_N26_76 () Real)
(declare-fun t_A_N27_79 () Real)
(declare-fun t_A_N28_82 () Real)
(declare-fun t_A_N29_85 () Real)
(declare-fun t_A_N30_88 () Real)
(declare-fun t_B_N30_89 () Real)
(declare-fun t_C_N30_90 () Real)
(assert (let ((?v_86 (- t_Goal_91 t_C_N29_87)) (?v_85 (- t_Goal_91 t_B_N29_86)) (?v_83 (- t_Goal_91 t_C_N28_84)) (?v_82 (- t_Goal_91 t_B_N28_83)) (?v_80 (- t_Goal_91 t_C_N27_81)) (?v_79 (- t_Goal_91 t_B_N27_80)) (?v_77 (- t_Goal_91 t_C_N26_78)) (?v_76 (- t_Goal_91 t_B_N26_77)) (?v_74 (- t_Goal_91 t_C_N25_75)) (?v_73 (- t_Goal_91 t_B_N25_74)) (?v_71 (- t_Goal_91 t_C_N24_72)) (?v_70 (- t_Goal_91 t_B_N24_71)) (?v_68 (- t_Goal_91 t_C_N23_69)) (?v_67 (- t_Goal_91 t_B_N23_68)) (?v_65 (- t_Goal_91 t_C_N22_66)) (?v_64 (- t_Goal_91 t_B_N22_65)) (?v_62 (- t_Goal_91 t_C_N21_63)) (?v_61 (- t_Goal_91 t_B_N21_62)) (?v_59 (- t_Goal_91 t_C_N20_60)) (?v_58 (- t_Goal_91 t_B_N20_59)) (?v_56 (- t_Goal_91 t_C_N19_57)) (?v_55 (- t_Goal_91 t_B_N19_56)) (?v_53 (- t_Goal_91 t_C_N18_54)) (?v_52 (- t_Goal_91 t_B_N18_53)) (?v_50 (- t_Goal_91 t_C_N17_51)) (?v_49 (- t_Goal_91 t_B_N17_50)) (?v_47 (- t_Goal_91 t_C_N16_48)) (?v_46 (- t_Goal_91 t_B_N16_47)) (?v_44 (- t_Goal_91 t_C_N15_45)) (?v_43 (- t_Goal_91 t_B_N15_44)) (?v_41 (- t_Goal_91 t_C_N14_42)) (?v_40 (- t_Goal_91 t_B_N14_41)) (?v_38 (- t_Goal_91 t_C_N13_39)) (?v_37 (- t_Goal_91 t_B_N13_38)) (?v_35 (- t_Goal_91 t_C_N12_36)) (?v_34 (- t_Goal_91 t_B_N12_35)) (?v_32 (- t_Goal_91 t_C_N11_33)) (?v_31 (- t_Goal_91 t_B_N11_32)) (?v_29 (- t_Goal_91 t_C_N10_30)) (?v_28 (- t_Goal_91 t_B_N10_29)) (?v_26 (- t_Goal_91 t_C_N9_27)) (?v_25 (- t_Goal_91 t_B_N9_26)) (?v_23 (- t_Goal_91 t_C_N8_24)) (?v_22 (- t_Goal_91 t_B_N8_23)) (?v_20 (- t_Goal_91 t_C_N7_21)) (?v_19 (- t_Goal_91 t_B_N7_20)) (?v_17 (- t_Goal_91 t_C_N6_18)) (?v_16 (- t_Goal_91 t_B_N6_17)) (?v_14 (- t_Goal_91 t_C_N5_15)) (?v_13 (- t_Goal_91 t_B_N5_14)) (?v_11 (- t_Goal_91 t_C_N4_12)) (?v_10 (- t_Goal_91 t_B_N4_11)) (?v_8 (- t_Goal_91 t_C_N3_9)) (?v_7 (- t_Goal_91 t_B_N3_8)) (?v_5 (- t_Goal_91 t_C_N2_6)) (?v_4 (- t_Goal_91 t_B_N2_5)) (?v_2 (- t_Goal_91 t_C_N1_3)) (?v_1 (- t_Goal_91 t_B_N1_2)) (?v_0 (- t_Goal_91 t_A_N1_1)) (?v_3 (- t_Goal_91 t_A_N2_4)) (?v_6 (- t_Goal_91 t_A_N3_7)) (?v_9 (- t_Goal_91 t_A_N4_10)) (?v_12 (- t_Goal_91 t_A_N5_13)) (?v_15 (- t_Goal_91 t_A_N6_16)) (?v_18 (- t_Goal_91 t_A_N7_19)) (?v_21 (- t_Goal_91 t_A_N8_22)) (?v_24 (- t_Goal_91 t_A_N9_25)) (?v_27 (- t_Goal_91 t_A_N10_28)) (?v_30 (- t_Goal_91 t_A_N11_31)) (?v_33 (- t_Goal_91 t_A_N12_34)) (?v_36 (- t_Goal_91 t_A_N13_37)) (?v_39 (- t_Goal_91 t_A_N14_40)) (?v_42 (- t_Goal_91 t_A_N15_43)) (?v_45 (- t_Goal_91 t_A_N16_46)) (?v_48 (- t_Goal_91 t_A_N17_49)) (?v_51 (- t_Goal_91 t_A_N18_52)) (?v_54 (- t_Goal_91 t_A_N19_55)) (?v_57 (- t_Goal_91 t_A_N20_58)) (?v_60 (- t_Goal_91 t_A_N21_61)) (?v_63 (- t_Goal_91 t_A_N22_64)) (?v_66 (- t_Goal_91 t_A_N23_67)) (?v_69 (- t_Goal_91 t_A_N24_70)) (?v_72 (- t_Goal_91 t_A_N25_73)) (?v_75 (- t_Goal_91 t_A_N26_76)) (?v_78 (- t_Goal_91 t_A_N27_79)) (?v_81 (- t_Goal_91 t_A_N28_82)) (?v_84 (- t_Goal_91 t_A_N29_85)) (?v_87 (- t_Goal_91 t_A_N30_88)) (?v_88 (- t_Goal_91 t_B_N30_89)) (?v_209 (- t_Goal_91 t_C_N30_90)) (?v_204 (- t_B_N1_2 t_A_N1_1))) (let ((?v_203 (< ?v_204 5)) (?v_202 (- t_C_N1_3 t_B_N1_2))) (let ((?v_201 (< ?v_202 4)) (?v_200 (- t_B_N2_5 t_A_N2_4))) (let ((?v_199 (< ?v_200 5)) (?v_198 (- t_C_N2_6 t_B_N2_5))) (let ((?v_197 (< ?v_198 4)) (?v_196 (- t_B_N3_8 t_A_N3_7))) (let ((?v_195 (< ?v_196 5)) (?v_194 (- t_C_N3_9 t_B_N3_8))) (let ((?v_193 (< ?v_194 4)) (?v_192 (- t_B_N4_11 t_A_N4_10))) (let ((?v_191 (< ?v_192 5)) (?v_190 (- t_C_N4_12 t_B_N4_11))) (let ((?v_189 (< ?v_190 4)) (?v_188 (- t_B_N5_14 t_A_N5_13))) (let ((?v_187 (< ?v_188 5)) (?v_186 (- t_C_N5_15 t_B_N5_14))) (let ((?v_185 (< ?v_186 4)) (?v_184 (- t_B_N6_17 t_A_N6_16))) (let ((?v_183 (< ?v_184 5)) (?v_182 (- t_C_N6_18 t_B_N6_17))) (let ((?v_181 (< ?v_182 4)) (?v_180 (- t_B_N7_20 t_A_N7_19))) (let ((?v_179 (< ?v_180 5)) (?v_178 (- t_C_N7_21 t_B_N7_20))) (let ((?v_177 (< ?v_178 4)) (?v_176 (- t_B_N8_23 t_A_N8_22))) (let ((?v_175 (< ?v_176 5)) (?v_174 (- t_C_N8_24 t_B_N8_23))) (let ((?v_173 (< ?v_174 4)) (?v_172 (- t_B_N9_26 t_A_N9_25))) (let ((?v_171 (< ?v_172 5)) (?v_170 (- t_C_N9_27 t_B_N9_26))) (let ((?v_169 (< ?v_170 4)) (?v_168 (- t_B_N10_29 t_A_N10_28))) (let ((?v_167 (< ?v_168 5)) (?v_166 (- t_C_N10_30 t_B_N10_29))) (let ((?v_165 (< ?v_166 4)) (?v_164 (- t_B_N11_32 t_A_N11_31))) (let ((?v_163 (< ?v_164 5)) (?v_162 (- t_C_N11_33 t_B_N11_32))) (let ((?v_161 (< ?v_162 4)) (?v_160 (- t_B_N12_35 t_A_N12_34))) (let ((?v_159 (< ?v_160 5)) (?v_158 (- t_C_N12_36 t_B_N12_35))) (let ((?v_157 (< ?v_158 4)) (?v_156 (- t_B_N13_38 t_A_N13_37))) (let ((?v_155 (< ?v_156 5)) (?v_154 (- t_C_N13_39 t_B_N13_38))) (let ((?v_153 (< ?v_154 4)) (?v_152 (- t_B_N14_41 t_A_N14_40))) (let ((?v_151 (< ?v_152 5)) (?v_150 (- t_C_N14_42 t_B_N14_41))) (let ((?v_149 (< ?v_150 4)) (?v_148 (- t_B_N15_44 t_A_N15_43))) (let ((?v_147 (< ?v_148 5)) (?v_146 (- t_C_N15_45 t_B_N15_44))) (let ((?v_145 (< ?v_146 4)) (?v_144 (- t_B_N16_47 t_A_N16_46))) (let ((?v_143 (< ?v_144 5)) (?v_142 (- t_C_N16_48 t_B_N16_47))) (let ((?v_141 (< ?v_142 4)) (?v_140 (- t_B_N17_50 t_A_N17_49))) (let ((?v_139 (< ?v_140 5)) (?v_138 (- t_C_N17_51 t_B_N17_50))) (let ((?v_137 (< ?v_138 4)) (?v_136 (- t_B_N18_53 t_A_N18_52))) (let ((?v_135 (< ?v_136 5)) (?v_134 (- t_C_N18_54 t_B_N18_53))) (let ((?v_133 (< ?v_134 4)) (?v_132 (- t_B_N19_56 t_A_N19_55))) (let ((?v_131 (< ?v_132 5)) (?v_130 (- t_C_N19_57 t_B_N19_56))) (let ((?v_129 (< ?v_130 4)) (?v_128 (- t_B_N20_59 t_A_N20_58))) (let ((?v_127 (< ?v_128 5)) (?v_126 (- t_C_N20_60 t_B_N20_59))) (let ((?v_125 (< ?v_126 4)) (?v_124 (- t_B_N21_62 t_A_N21_61))) (let ((?v_123 (< ?v_124 5)) (?v_122 (- t_C_N21_63 t_B_N21_62))) (let ((?v_121 (< ?v_122 4)) (?v_120 (- t_B_N22_65 t_A_N22_64))) (let ((?v_119 (< ?v_120 5)) (?v_118 (- t_C_N22_66 t_B_N22_65))) (let ((?v_117 (< ?v_118 4)) (?v_116 (- t_B_N23_68 t_A_N23_67))) (let ((?v_115 (< ?v_116 5)) (?v_114 (- t_C_N23_69 t_B_N23_68))) (let ((?v_113 (< ?v_114 4)) (?v_112 (- t_B_N24_71 t_A_N24_70))) (let ((?v_111 (< ?v_112 5)) (?v_110 (- t_C_N24_72 t_B_N24_71))) (let ((?v_109 (< ?v_110 4)) (?v_108 (- t_B_N25_74 t_A_N25_73))) (let ((?v_107 (< ?v_108 5)) (?v_106 (- t_C_N25_75 t_B_N25_74))) (let ((?v_105 (< ?v_106 4)) (?v_104 (- t_B_N26_77 t_A_N26_76))) (let ((?v_103 (< ?v_104 5)) (?v_102 (- t_C_N26_78 t_B_N26_77))) (let ((?v_101 (< ?v_102 4)) (?v_100 (- t_B_N27_80 t_A_N27_79))) (let ((?v_99 (< ?v_100 5)) (?v_98 (- t_C_N27_81 t_B_N27_80))) (let ((?v_97 (< ?v_98 4)) (?v_96 (- t_B_N28_83 t_A_N28_82))) (let ((?v_95 (< ?v_96 5)) (?v_94 (- t_C_N28_84 t_B_N28_83))) (let ((?v_93 (< ?v_94 4)) (?v_92 (- t_B_N29_86 t_A_N29_85))) (let ((?v_91 (< ?v_92 5)) (?v_90 (- t_C_N29_87 t_B_N29_86))) (let ((?v_89 (< ?v_90 4)) (?v_206 (- t_B_N30_89 t_A_N30_88))) (let ((?v_205 (< ?v_206 5)) (?v_208 (- t_C_N30_90 t_B_N30_89))) (let ((?v_207 (< ?v_208 4)) (?v_353 (- t_A_N30_88 t_C_N29_87)) (?v_348 (- t_A_N29_85 t_C_N28_84)) (?v_343 (- t_A_N28_82 t_C_N27_81)) (?v_338 (- t_A_N27_79 t_C_N26_78)) (?v_333 (- t_A_N26_76 t_C_N25_75)) (?v_328 (- t_A_N25_73 t_C_N24_72)) (?v_323 (- t_A_N24_70 t_C_N23_69)) (?v_318 (- t_A_N23_67 t_C_N22_66)) (?v_313 (- t_A_N22_64 t_C_N21_63)) (?v_308 (- t_A_N21_61 t_C_N20_60)) (?v_303 (- t_A_N20_58 t_C_N19_57)) (?v_298 (- t_A_N19_55 t_C_N18_54)) (?v_293 (- t_A_N18_52 t_C_N17_51)) (?v_288 (- t_A_N17_49 t_C_N16_48)) (?v_283 (- t_A_N16_46 t_C_N15_45)) (?v_278 (- t_A_N15_43 t_C_N14_42)) (?v_273 (- t_A_N14_40 t_C_N13_39)) (?v_268 (- t_A_N13_37 t_C_N12_36)) (?v_263 (- t_A_N12_34 t_C_N11_33)) (?v_258 (- t_A_N11_31 t_C_N10_30)) (?v_253 (- t_A_N10_28 t_C_N9_27)) (?v_248 (- t_A_N9_25 t_C_N8_24)) (?v_243 (- t_A_N8_22 t_C_N7_21)) (?v_238 (- t_A_N7_19 t_C_N6_18)) (?v_233 (- t_A_N6_16 t_C_N5_15)) (?v_228 (- t_A_N5_13 t_C_N4_12)) (?v_223 (- t_A_N4_10 t_C_N3_9)) (?v_218 (- t_A_N3_7 t_C_N2_6)) (?v_213 (- t_A_N2_4 t_C_N1_3)) (?v_210 (- t_A_N2_4 t_A_N1_1)) (?v_215 (- t_A_N3_7 t_A_N2_4)) (?v_220 (- t_A_N4_10 t_A_N3_7)) (?v_225 (- t_A_N5_13 t_A_N4_10)) (?v_230 (- t_A_N6_16 t_A_N5_13)) (?v_235 (- t_A_N7_19 t_A_N6_16)) (?v_240 (- t_A_N8_22 t_A_N7_19)) (?v_245 (- t_A_N9_25 t_A_N8_22)) (?v_250 (- t_A_N10_28 t_A_N9_25)) (?v_255 (- t_A_N11_31 t_A_N10_28)) (?v_260 (- t_A_N12_34 t_A_N11_31)) (?v_265 (- t_A_N13_37 t_A_N12_34)) (?v_270 (- t_A_N14_40 t_A_N13_37)) (?v_275 (- t_A_N15_43 t_A_N14_40)) (?v_280 (- t_A_N16_46 t_A_N15_43)) (?v_285 (- t_A_N17_49 t_A_N16_46)) (?v_290 (- t_A_N18_52 t_A_N17_49)) (?v_295 (- t_A_N19_55 t_A_N18_52)) (?v_300 (- t_A_N20_58 t_A_N19_55)) (?v_305 (- t_A_N21_61 t_A_N20_58)) (?v_310 (- t_A_N22_64 t_A_N21_61)) (?v_315 (- t_A_N23_67 t_A_N22_64)) (?v_320 (- t_A_N24_70 t_A_N23_67)) (?v_325 (- t_A_N25_73 t_A_N24_70)) (?v_330 (- t_A_N26_76 t_A_N25_73)) (?v_335 (- t_A_N27_79 t_A_N26_76)) (?v_340 (- t_A_N28_82 t_A_N27_79)) (?v_345 (- t_A_N29_85 t_A_N28_82)) (?v_350 (- t_A_N30_88 t_A_N29_85))) (let ((?v_443 (< ?v_210 5)) (?v_211 (> ?v_204 1))) (let ((?v_442 (or ?v_443 ?v_211)) (?v_212 (< ?v_0 6)) (?v_214 (< (- t_C_N1_3 t_A_N1_1) 4))) (let ((?v_441 (or (< ?v_213 1) ?v_214)) (?v_440 (< ?v_215 5)) (?v_216 (> ?v_200 1))) (let ((?v_439 (or ?v_440 ?v_216)) (?v_217 (< ?v_3 6)) (?v_219 (< (- t_C_N2_6 t_A_N2_4) 4))) (let ((?v_438 (or (< ?v_218 1) ?v_219)) (?v_437 (< ?v_220 5)) (?v_221 (> ?v_196 1))) (let ((?v_436 (or ?v_437 ?v_221)) (?v_222 (< ?v_6 6)) (?v_224 (< (- t_C_N3_9 t_A_N3_7) 4))) (let ((?v_435 (or (< ?v_223 1) ?v_224)) (?v_434 (< ?v_225 5)) (?v_226 (> ?v_192 1))) (let ((?v_433 (or ?v_434 ?v_226)) (?v_227 (< ?v_9 6)) (?v_229 (< (- t_C_N4_12 t_A_N4_10) 4))) (let ((?v_432 (or (< ?v_228 1) ?v_229)) (?v_431 (< ?v_230 5)) (?v_231 (> ?v_188 1))) (let ((?v_430 (or ?v_431 ?v_231)) (?v_232 (< ?v_12 6)) (?v_234 (< (- t_C_N5_15 t_A_N5_13) 4))) (let ((?v_429 (or (< ?v_233 1) ?v_234)) (?v_428 (< ?v_235 5)) (?v_236 (> ?v_184 1))) (let ((?v_427 (or ?v_428 ?v_236)) (?v_237 (< ?v_15 6)) (?v_239 (< (- t_C_N6_18 t_A_N6_16) 4))) (let ((?v_426 (or (< ?v_238 1) ?v_239)) (?v_425 (< ?v_240 5)) (?v_241 (> ?v_180 1))) (let ((?v_424 (or ?v_425 ?v_241)) (?v_242 (< ?v_18 6)) (?v_244 (< (- t_C_N7_21 t_A_N7_19) 4))) (let ((?v_423 (or (< ?v_243 1) ?v_244)) (?v_422 (< ?v_245 5)) (?v_246 (> ?v_176 1))) (let ((?v_421 (or ?v_422 ?v_246)) (?v_247 (< ?v_21 6)) (?v_249 (< (- t_C_N8_24 t_A_N8_22) 4))) (let ((?v_420 (or (< ?v_248 1) ?v_249)) (?v_419 (< ?v_250 5)) (?v_251 (> ?v_172 1))) (let ((?v_418 (or ?v_419 ?v_251)) (?v_252 (< ?v_24 6)) (?v_254 (< (- t_C_N9_27 t_A_N9_25) 4))) (let ((?v_417 (or (< ?v_253 1) ?v_254)) (?v_416 (< ?v_255 5)) (?v_256 (> ?v_168 1))) (let ((?v_415 (or ?v_416 ?v_256)) (?v_257 (< ?v_27 6)) (?v_259 (< (- t_C_N10_30 t_A_N10_28) 4))) (let ((?v_414 (or (< ?v_258 1) ?v_259)) (?v_413 (< ?v_260 5)) (?v_261 (> ?v_164 1))) (let ((?v_412 (or ?v_413 ?v_261)) (?v_262 (< ?v_30 6)) (?v_264 (< (- t_C_N11_33 t_A_N11_31) 4))) (let ((?v_411 (or (< ?v_263 1) ?v_264)) (?v_410 (< ?v_265 5)) (?v_266 (> ?v_160 1))) (let ((?v_409 (or ?v_410 ?v_266)) (?v_267 (< ?v_33 6)) (?v_269 (< (- t_C_N12_36 t_A_N12_34) 4))) (let ((?v_408 (or (< ?v_268 1) ?v_269)) (?v_407 (< ?v_270 5)) (?v_271 (> ?v_156 1))) (let ((?v_406 (or ?v_407 ?v_271)) (?v_272 (< ?v_36 6)) (?v_274 (< (- t_C_N13_39 t_A_N13_37) 4))) (let ((?v_405 (or (< ?v_273 1) ?v_274)) (?v_404 (< ?v_275 5)) (?v_276 (> ?v_152 1))) (let ((?v_403 (or ?v_404 ?v_276)) (?v_277 (< ?v_39 6)) (?v_279 (< (- t_C_N14_42 t_A_N14_40) 4))) (let ((?v_402 (or (< ?v_278 1) ?v_279)) (?v_401 (< ?v_280 5)) (?v_281 (> ?v_148 1))) (let ((?v_400 (or ?v_401 ?v_281)) (?v_282 (< ?v_42 6)) (?v_284 (< (- t_C_N15_45 t_A_N15_43) 4))) (let ((?v_399 (or (< ?v_283 1) ?v_284)) (?v_398 (< ?v_285 5)) (?v_286 (> ?v_144 1))) (let ((?v_397 (or ?v_398 ?v_286)) (?v_287 (< ?v_45 6)) (?v_289 (< (- t_C_N16_48 t_A_N16_46) 4))) (let ((?v_396 (or (< ?v_288 1) ?v_289)) (?v_395 (< ?v_290 5)) (?v_291 (> ?v_140 1))) (let ((?v_394 (or ?v_395 ?v_291)) (?v_292 (< ?v_48 6)) (?v_294 (< (- t_C_N17_51 t_A_N17_49) 4))) (let ((?v_393 (or (< ?v_293 1) ?v_294)) (?v_392 (< ?v_295 5)) (?v_296 (> ?v_136 1))) (let ((?v_391 (or ?v_392 ?v_296)) (?v_297 (< ?v_51 6)) (?v_299 (< (- t_C_N18_54 t_A_N18_52) 4))) (let ((?v_390 (or (< ?v_298 1) ?v_299)) (?v_389 (< ?v_300 5)) (?v_301 (> ?v_132 1))) (let ((?v_388 (or ?v_389 ?v_301)) (?v_302 (< ?v_54 6)) (?v_304 (< (- t_C_N19_57 t_A_N19_55) 4))) (let ((?v_387 (or (< ?v_303 1) ?v_304)) (?v_386 (< ?v_305 5)) (?v_306 (> ?v_128 1))) (let ((?v_385 (or ?v_386 ?v_306)) (?v_307 (< ?v_57 6)) (?v_309 (< (- t_C_N20_60 t_A_N20_58) 4))) (let ((?v_384 (or (< ?v_308 1) ?v_309)) (?v_383 (< ?v_310 5)) (?v_311 (> ?v_124 1))) (let ((?v_382 (or ?v_383 ?v_311)) (?v_312 (< ?v_60 6)) (?v_314 (< (- t_C_N21_63 t_A_N21_61) 4))) (let ((?v_381 (or (< ?v_313 1) ?v_314)) (?v_380 (< ?v_315 5)) (?v_316 (> ?v_120 1))) (let ((?v_379 (or ?v_380 ?v_316)) (?v_317 (< ?v_63 6)) (?v_319 (< (- t_C_N22_66 t_A_N22_64) 4))) (let ((?v_378 (or (< ?v_318 1) ?v_319)) (?v_377 (< ?v_320 5)) (?v_321 (> ?v_116 1))) (let ((?v_376 (or ?v_377 ?v_321)) (?v_322 (< ?v_66 6)) (?v_324 (< (- t_C_N23_69 t_A_N23_67) 4))) (let ((?v_375 (or (< ?v_323 1) ?v_324)) (?v_374 (< ?v_325 5)) (?v_326 (> ?v_112 1))) (let ((?v_373 (or ?v_374 ?v_326)) (?v_327 (< ?v_69 6)) (?v_329 (< (- t_C_N24_72 t_A_N24_70) 4))) (let ((?v_372 (or (< ?v_328 1) ?v_329)) (?v_371 (< ?v_330 5)) (?v_331 (> ?v_108 1))) (let ((?v_370 (or ?v_371 ?v_331)) (?v_332 (< ?v_72 6)) (?v_334 (< (- t_C_N25_75 t_A_N25_73) 4))) (let ((?v_369 (or (< ?v_333 1) ?v_334)) (?v_368 (< ?v_335 5)) (?v_336 (> ?v_104 1))) (let ((?v_367 (or ?v_368 ?v_336)) (?v_337 (< ?v_75 6)) (?v_339 (< (- t_C_N26_78 t_A_N26_76) 4))) (let ((?v_366 (or (< ?v_338 1) ?v_339)) (?v_365 (< ?v_340 5)) (?v_341 (> ?v_100 1))) (let ((?v_364 (or ?v_365 ?v_341)) (?v_342 (< ?v_78 6)) (?v_344 (< (- t_C_N27_81 t_A_N27_79) 4))) (let ((?v_363 (or (< ?v_343 1) ?v_344)) (?v_362 (< ?v_345 5)) (?v_346 (> ?v_96 1))) (let ((?v_361 (or ?v_362 ?v_346)) (?v_347 (< ?v_81 6)) (?v_349 (< (- t_C_N28_84 t_A_N28_82) 4))) (let ((?v_360 (or (< ?v_348 1) ?v_349)) (?v_359 (< ?v_350 5)) (?v_351 (> ?v_92 1))) (let ((?v_358 (or ?v_359 ?v_351)) (?v_352 (< ?v_84 6)) (?v_354 (< (- t_C_N29_87 t_A_N29_85) 4))) (let ((?v_357 (or (< ?v_353 1) ?v_354)) (?v_355 (> ?v_206 1))) (let ((?v_444 (or (< ?v_206 1) ?v_355)) (?v_356 (< ?v_87 6)) (?v_446 (- t_C_N30_90 t_A_N30_88))) (let ((?v_445 (< ?v_446 4))) (and (= St_spy_variable (+ 1 t_Init_0)) (>= t_Goal_91 t_Init_0) (>= (- t_C_N29_87 t_Init_0) 0) (>= ?v_86 1) (>= (- t_B_N29_86 t_Init_0) 0) (>= ?v_85 4) (>= (- t_C_N28_84 t_Init_0) 0) (>= ?v_83 1) (>= (- t_B_N28_83 t_Init_0) 0) (>= ?v_82 4) (>= (- t_C_N27_81 t_Init_0) 0) (>= ?v_80 1) (>= (- t_B_N27_80 t_Init_0) 0) (>= ?v_79 4) (>= (- t_C_N26_78 t_Init_0) 0) (>= ?v_77 1) (>= (- t_B_N26_77 t_Init_0) 0) (>= ?v_76 4) (>= (- t_C_N25_75 t_Init_0) 0) (>= ?v_74 1) (>= (- t_B_N25_74 t_Init_0) 0) (>= ?v_73 4) (>= (- t_C_N24_72 t_Init_0) 0) (>= ?v_71 1) (>= (- t_B_N24_71 t_Init_0) 0) (>= ?v_70 4) (>= (- t_C_N23_69 t_Init_0) 0) (>= ?v_68 1) (>= (- t_B_N23_68 t_Init_0) 0) (>= ?v_67 4) (>= (- t_C_N22_66 t_Init_0) 0) (>= ?v_65 1) (>= (- t_B_N22_65 t_Init_0) 0) (>= ?v_64 4) (>= (- t_C_N21_63 t_Init_0) 0) (>= ?v_62 1) (>= (- t_B_N21_62 t_Init_0) 0) (>= ?v_61 4) (>= (- t_C_N20_60 t_Init_0) 0) (>= ?v_59 1) (>= (- t_B_N20_59 t_Init_0) 0) (>= ?v_58 4) (>= (- t_C_N19_57 t_Init_0) 0) (>= ?v_56 1) (>= (- t_B_N19_56 t_Init_0) 0) (>= ?v_55 4) (>= (- t_C_N18_54 t_Init_0) 0) (>= ?v_53 1) (>= (- t_B_N18_53 t_Init_0) 0) (>= ?v_52 4) (>= (- t_C_N17_51 t_Init_0) 0) (>= ?v_50 1) (>= (- t_B_N17_50 t_Init_0) 0) (>= ?v_49 4) (>= (- t_C_N16_48 t_Init_0) 0) (>= ?v_47 1) (>= (- t_B_N16_47 t_Init_0) 0) (>= ?v_46 4) (>= (- t_C_N15_45 t_Init_0) 0) (>= ?v_44 1) (>= (- t_B_N15_44 t_Init_0) 0) (>= ?v_43 4) (>= (- t_C_N14_42 t_Init_0) 0) (>= ?v_41 1) (>= (- t_B_N14_41 t_Init_0) 0) (>= ?v_40 4) (>= (- t_C_N13_39 t_Init_0) 0) (>= ?v_38 1) (>= (- t_B_N13_38 t_Init_0) 0) (>= ?v_37 4) (>= (- t_C_N12_36 t_Init_0) 0) (>= ?v_35 1) (>= (- t_B_N12_35 t_Init_0) 0) (>= ?v_34 4) (>= (- t_C_N11_33 t_Init_0) 0) (>= ?v_32 1) (>= (- t_B_N11_32 t_Init_0) 0) (>= ?v_31 4) (>= (- t_C_N10_30 t_Init_0) 0) (>= ?v_29 1) (>= (- t_B_N10_29 t_Init_0) 0) (>= ?v_28 4) (>= (- t_C_N9_27 t_Init_0) 0) (>= ?v_26 1) (>= (- t_B_N9_26 t_Init_0) 0) (>= ?v_25 4) (>= (- t_C_N8_24 t_Init_0) 0) (>= ?v_23 1) (>= (- t_B_N8_23 t_Init_0) 0) (>= ?v_22 4) (>= (- t_C_N7_21 t_Init_0) 0) (>= ?v_20 1) (>= (- t_B_N7_20 t_Init_0) 0) (>= ?v_19 4) (>= (- t_C_N6_18 t_Init_0) 0) (>= ?v_17 1) (>= (- t_B_N6_17 t_Init_0) 0) (>= ?v_16 4) (>= (- t_C_N5_15 t_Init_0) 0) (>= ?v_14 1) (>= (- t_B_N5_14 t_Init_0) 0) (>= ?v_13 4) (>= (- t_C_N4_12 t_Init_0) 0) (>= ?v_11 1) (>= (- t_B_N4_11 t_Init_0) 0) (>= ?v_10 4) (>= (- t_C_N3_9 t_Init_0) 0) (>= ?v_8 1) (>= (- t_B_N3_8 t_Init_0) 0) (>= ?v_7 4) (>= (- t_C_N2_6 t_Init_0) 0) (>= ?v_5 1) (>= (- t_B_N2_5 t_Init_0) 0) (>= ?v_4 4) (>= (- t_C_N1_3 t_Init_0) 0) (>= ?v_2 1) (>= (- t_B_N1_2 t_Init_0) 0) (>= ?v_1 4) (>= (- t_A_N1_1 t_Init_0) 0) (>= ?v_0 5) (>= (- t_A_N2_4 t_Init_0) 0) (>= ?v_3 5) (>= (- t_A_N3_7 t_Init_0) 0) (>= ?v_6 5) (>= (- t_A_N4_10 t_Init_0) 0) (>= ?v_9 5) (>= (- t_A_N5_13 t_Init_0) 0) (>= ?v_12 5) (>= (- t_A_N6_16 t_Init_0) 0) (>= ?v_15 5) (>= (- t_A_N7_19 t_Init_0) 0) (>= ?v_18 5) (>= (- t_A_N8_22 t_Init_0) 0) (>= ?v_21 5) (>= (- t_A_N9_25 t_Init_0) 0) (>= ?v_24 5) (>= (- t_A_N10_28 t_Init_0) 0) (>= ?v_27 5) (>= (- t_A_N11_31 t_Init_0) 0) (>= ?v_30 5) (>= (- t_A_N12_34 t_Init_0) 0) (>= ?v_33 5) (>= (- t_A_N13_37 t_Init_0) 0) (>= ?v_36 5) (>= (- t_A_N14_40 t_Init_0) 0) (>= ?v_39 5) (>= (- t_A_N15_43 t_Init_0) 0) (>= ?v_42 5) (>= (- t_A_N16_46 t_Init_0) 0) (>= ?v_45 5) (>= (- t_A_N17_49 t_Init_0) 0) (>= ?v_48 5) (>= (- t_A_N18_52 t_Init_0) 0) (>= ?v_51 5) (>= (- t_A_N19_55 t_Init_0) 0) (>= ?v_54 5) (>= (- t_A_N20_58 t_Init_0) 0) (>= ?v_57 5) (>= (- t_A_N21_61 t_Init_0) 0) (>= ?v_60 5) (>= (- t_A_N22_64 t_Init_0) 0) (>= ?v_63 5) (>= (- t_A_N23_67 t_Init_0) 0) (>= ?v_66 5) (>= (- t_A_N24_70 t_Init_0) 0) (>= ?v_69 5) (>= (- t_A_N25_73 t_Init_0) 0) (>= ?v_72 5) (>= (- t_A_N26_76 t_Init_0) 0) (>= ?v_75 5) (>= (- t_A_N27_79 t_Init_0) 0) (>= ?v_78 5) (>= (- t_A_N28_82 t_Init_0) 0) (>= ?v_81 5) (>= (- t_A_N29_85 t_Init_0) 0) (>= ?v_84 5) (>= (- t_A_N30_88 t_Init_0) 0) (>= ?v_87 5) (>= (- t_B_N30_89 t_Init_0) 0) (>= ?v_88 4) (>= (- t_C_N30_90 t_Init_0) 0) (>= ?v_209 1) ?v_203 (>= ?v_0 6) ?v_201 (>= ?v_1 5) (>= ?v_2 2) ?v_199 (>= ?v_3 6) ?v_197 (>= ?v_4 5) (>= ?v_5 2) ?v_195 (>= ?v_6 6) ?v_193 (>= ?v_7 5) (>= ?v_8 2) ?v_191 (>= ?v_9 6) ?v_189 (>= ?v_10 5) (>= ?v_11 2) ?v_187 (>= ?v_12 6) ?v_185 (>= ?v_13 5) (>= ?v_14 2) ?v_183 (>= ?v_15 6) ?v_181 (>= ?v_16 5) (>= ?v_17 2) ?v_179 (>= ?v_18 6) ?v_177 (>= ?v_19 5) (>= ?v_20 2) ?v_175 (>= ?v_21 6) ?v_173 (>= ?v_22 5) (>= ?v_23 2) ?v_171 (>= ?v_24 6) ?v_169 (>= ?v_25 5) (>= ?v_26 2) ?v_167 (>= ?v_27 6) ?v_165 (>= ?v_28 5) (>= ?v_29 2) ?v_163 (>= ?v_30 6) ?v_161 (>= ?v_31 5) (>= ?v_32 2) ?v_159 (>= ?v_33 6) ?v_157 (>= ?v_34 5) (>= ?v_35 2) ?v_155 (>= ?v_36 6) ?v_153 (>= ?v_37 5) (>= ?v_38 2) ?v_151 (>= ?v_39 6) ?v_149 (>= ?v_40 5) (>= ?v_41 2) ?v_147 (>= ?v_42 6) ?v_145 (>= ?v_43 5) (>= ?v_44 2) ?v_143 (>= ?v_45 6) ?v_141 (>= ?v_46 5) (>= ?v_47 2) ?v_139 (>= ?v_48 6) ?v_137 (>= ?v_49 5) (>= ?v_50 2) ?v_135 (>= ?v_51 6) ?v_133 (>= ?v_52 5) (>= ?v_53 2) ?v_131 (>= ?v_54 6) ?v_129 (>= ?v_55 5) (>= ?v_56 2) ?v_127 (>= ?v_57 6) ?v_125 (>= ?v_58 5) (>= ?v_59 2) ?v_123 (>= ?v_60 6) ?v_121 (>= ?v_61 5) (>= ?v_62 2) ?v_119 (>= ?v_63 6) ?v_117 (>= ?v_64 5) (>= ?v_65 2) ?v_115 (>= ?v_66 6) ?v_113 (>= ?v_67 5) (>= ?v_68 2) ?v_111 (>= ?v_69 6) ?v_109 (>= ?v_70 5) (>= ?v_71 2) ?v_107 (>= ?v_72 6) ?v_105 (>= ?v_73 5) (>= ?v_74 2) ?v_103 (>= ?v_75 6) ?v_101 (>= ?v_76 5) (>= ?v_77 2) ?v_99 (>= ?v_78 6) ?v_97 (>= ?v_79 5) (>= ?v_80 2) ?v_95 (>= ?v_81 6) ?v_93 (>= ?v_82 5) (>= ?v_83 2) ?v_91 (>= ?v_84 6) ?v_89 (>= ?v_85 5) (>= ?v_86 2) ?v_205 (>= ?v_87 6) ?v_207 (>= ?v_88 5) ?v_89 ?v_89 (>= ?v_90 0) (>= ?v_353 1) ?v_91 ?v_91 (>= ?v_92 0) (>= (- t_A_N30_88 t_B_N29_86) 4) ?v_93 ?v_93 (>= ?v_94 0) (>= ?v_348 1) ?v_95 ?v_95 (>= ?v_96 0) (>= (- t_A_N29_85 t_B_N28_83) 4) ?v_97 ?v_97 (>= ?v_98 0) (>= ?v_343 1) ?v_99 ?v_99 (>= ?v_100 0) (>= (- t_A_N28_82 t_B_N27_80) 4) ?v_101 ?v_101 (>= ?v_102 0) (>= ?v_338 1) ?v_103 ?v_103 (>= ?v_104 0) (>= (- t_A_N27_79 t_B_N26_77) 4) ?v_105 ?v_105 (>= ?v_106 0) (>= ?v_333 1) ?v_107 ?v_107 (>= ?v_108 0) (>= (- t_A_N26_76 t_B_N25_74) 4) ?v_109 ?v_109 (>= ?v_110 0) (>= ?v_328 1) ?v_111 ?v_111 (>= ?v_112 0) (>= (- t_A_N25_73 t_B_N24_71) 4) ?v_113 ?v_113 (>= ?v_114 0) (>= ?v_323 1) ?v_115 ?v_115 (>= ?v_116 0) (>= (- t_A_N24_70 t_B_N23_68) 4) ?v_117 ?v_117 (>= ?v_118 0) (>= ?v_318 1) ?v_119 ?v_119 (>= ?v_120 0) (>= (- t_A_N23_67 t_B_N22_65) 4) ?v_121 ?v_121 (>= ?v_122 0) (>= ?v_313 1) ?v_123 ?v_123 (>= ?v_124 0) (>= (- t_A_N22_64 t_B_N21_62) 4) ?v_125 ?v_125 (>= ?v_126 0) (>= ?v_308 1) ?v_127 ?v_127 (>= ?v_128 0) (>= (- t_A_N21_61 t_B_N20_59) 4) ?v_129 ?v_129 (>= ?v_130 0) (>= ?v_303 1) ?v_131 ?v_131 (>= ?v_132 0) (>= (- t_A_N20_58 t_B_N19_56) 4) ?v_133 ?v_133 (>= ?v_134 0) (>= ?v_298 1) ?v_135 ?v_135 (>= ?v_136 0) (>= (- t_A_N19_55 t_B_N18_53) 4) ?v_137 ?v_137 (>= ?v_138 0) (>= ?v_293 1) ?v_139 ?v_139 (>= ?v_140 0) (>= (- t_A_N18_52 t_B_N17_50) 4) ?v_141 ?v_141 (>= ?v_142 0) (>= ?v_288 1) ?v_143 ?v_143 (>= ?v_144 0) (>= (- t_A_N17_49 t_B_N16_47) 4) ?v_145 ?v_145 (>= ?v_146 0) (>= ?v_283 1) ?v_147 ?v_147 (>= ?v_148 0) (>= (- t_A_N16_46 t_B_N15_44) 4) ?v_149 ?v_149 (>= ?v_150 0) (>= ?v_278 1) ?v_151 ?v_151 (>= ?v_152 0) (>= (- t_A_N15_43 t_B_N14_41) 4) ?v_153 ?v_153 (>= ?v_154 0) (>= ?v_273 1) ?v_155 ?v_155 (>= ?v_156 0) (>= (- t_A_N14_40 t_B_N13_38) 4) ?v_157 ?v_157 (>= ?v_158 0) (>= ?v_268 1) ?v_159 ?v_159 (>= ?v_160 0) (>= (- t_A_N13_37 t_B_N12_35) 4) ?v_161 ?v_161 (>= ?v_162 0) (>= ?v_263 1) ?v_163 ?v_163 (>= ?v_164 0) (>= (- t_A_N12_34 t_B_N11_32) 4) ?v_165 ?v_165 (>= ?v_166 0) (>= ?v_258 1) ?v_167 ?v_167 (>= ?v_168 0) (>= (- t_A_N11_31 t_B_N10_29) 4) ?v_169 ?v_169 (>= ?v_170 0) (>= ?v_253 1) ?v_171 ?v_171 (>= ?v_172 0) (>= (- t_A_N10_28 t_B_N9_26) 4) ?v_173 ?v_173 (>= ?v_174 0) (>= ?v_248 1) ?v_175 ?v_175 (>= ?v_176 0) (>= (- t_A_N9_25 t_B_N8_23) 4) ?v_177 ?v_177 (>= ?v_178 0) (>= ?v_243 1) ?v_179 ?v_179 (>= ?v_180 0) (>= (- t_A_N8_22 t_B_N7_20) 4) ?v_181 ?v_181 (>= ?v_182 0) (>= ?v_238 1) ?v_183 ?v_183 (>= ?v_184 0) (>= (- t_A_N7_19 t_B_N6_17) 4) ?v_185 ?v_185 (>= ?v_186 0) (>= ?v_233 1) ?v_187 ?v_187 (>= ?v_188 0) (>= (- t_A_N6_16 t_B_N5_14) 4) ?v_189 ?v_189 (>= ?v_190 0) (>= ?v_228 1) ?v_191 ?v_191 (>= ?v_192 0) (>= (- t_A_N5_13 t_B_N4_11) 4) ?v_193 ?v_193 (>= ?v_194 0) (>= ?v_223 1) ?v_195 ?v_195 (>= ?v_196 0) (>= (- t_A_N4_10 t_B_N3_8) 4) ?v_197 ?v_197 (>= ?v_198 0) (>= ?v_218 1) ?v_199 ?v_199 (>= ?v_200 0) (>= (- t_A_N3_7 t_B_N2_5) 4) ?v_201 ?v_201 (>= ?v_202 0) (>= ?v_213 1) ?v_203 ?v_203 (>= ?v_204 0) (>= (- t_A_N2_4 t_B_N1_2) 4) (>= ?v_210 5) (>= ?v_215 5) (>= ?v_220 5) (>= ?v_225 5) (>= ?v_230 5) (>= ?v_235 5) (>= ?v_240 5) (>= ?v_245 5) (>= ?v_250 5) (>= ?v_255 5) (>= ?v_260 5) (>= ?v_265 5) (>= ?v_270 5) (>= ?v_275 5) (>= ?v_280 5) (>= ?v_285 5) (>= ?v_290 5) (>= ?v_295 5) (>= ?v_300 5) (>= ?v_305 5) (>= ?v_310 5) (>= ?v_315 5) (>= ?v_320 5) (>= ?v_325 5) (>= ?v_330 5) (>= ?v_335 5) (>= ?v_340 5) (>= ?v_345 5) (>= ?v_350 5) ?v_205 (>= ?v_206 0) ?v_207 (>= ?v_208 0) (>= ?v_209 2) ?v_442 (or ?v_212 ?v_211) (or ?v_214 (< ?v_2 2)) (or ?v_211 ?v_212) ?v_441 ?v_439 (or ?v_217 ?v_216) (or ?v_219 (< ?v_5 2)) (or ?v_216 ?v_217) ?v_438 ?v_436 (or ?v_222 ?v_221) (or ?v_224 (< ?v_8 2)) (or ?v_221 ?v_222) ?v_435 ?v_433 (or ?v_227 ?v_226) (or ?v_229 (< ?v_11 2)) (or ?v_226 ?v_227) ?v_432 ?v_430 (or ?v_232 ?v_231) (or ?v_234 (< ?v_14 2)) (or ?v_231 ?v_232) ?v_429 ?v_427 (or ?v_237 ?v_236) (or ?v_239 (< ?v_17 2)) (or ?v_236 ?v_237) ?v_426 ?v_424 (or ?v_242 ?v_241) (or ?v_244 (< ?v_20 2)) (or ?v_241 ?v_242) ?v_423 ?v_421 (or ?v_247 ?v_246) (or ?v_249 (< ?v_23 2)) (or ?v_246 ?v_247) ?v_420 ?v_418 (or ?v_252 ?v_251) (or ?v_254 (< ?v_26 2)) (or ?v_251 ?v_252) ?v_417 ?v_415 (or ?v_257 ?v_256) (or ?v_259 (< ?v_29 2)) (or ?v_256 ?v_257) ?v_414 ?v_412 (or ?v_262 ?v_261) (or ?v_264 (< ?v_32 2)) (or ?v_261 ?v_262) ?v_411 ?v_409 (or ?v_267 ?v_266) (or ?v_269 (< ?v_35 2)) (or ?v_266 ?v_267) ?v_408 ?v_406 (or ?v_272 ?v_271) (or ?v_274 (< ?v_38 2)) (or ?v_271 ?v_272) ?v_405 ?v_403 (or ?v_277 ?v_276) (or ?v_279 (< ?v_41 2)) (or ?v_276 ?v_277) ?v_402 ?v_400 (or ?v_282 ?v_281) (or ?v_284 (< ?v_44 2)) (or ?v_281 ?v_282) ?v_399 ?v_397 (or ?v_287 ?v_286) (or ?v_289 (< ?v_47 2)) (or ?v_286 ?v_287) ?v_396 ?v_394 (or ?v_292 ?v_291) (or ?v_294 (< ?v_50 2)) (or ?v_291 ?v_292) ?v_393 ?v_391 (or ?v_297 ?v_296) (or ?v_299 (< ?v_53 2)) (or ?v_296 ?v_297) ?v_390 ?v_388 (or ?v_302 ?v_301) (or ?v_304 (< ?v_56 2)) (or ?v_301 ?v_302) ?v_387 ?v_385 (or ?v_307 ?v_306) (or ?v_309 (< ?v_59 2)) (or ?v_306 ?v_307) ?v_384 ?v_382 (or ?v_312 ?v_311) (or ?v_314 (< ?v_62 2)) (or ?v_311 ?v_312) ?v_381 ?v_379 (or ?v_317 ?v_316) (or ?v_319 (< ?v_65 2)) (or ?v_316 ?v_317) ?v_378 ?v_376 (or ?v_322 ?v_321) (or ?v_324 (< ?v_68 2)) (or ?v_321 ?v_322) ?v_375 ?v_373 (or ?v_327 ?v_326) (or ?v_329 (< ?v_71 2)) (or ?v_326 ?v_327) ?v_372 ?v_370 (or ?v_332 ?v_331) (or ?v_334 (< ?v_74 2)) (or ?v_331 ?v_332) ?v_369 ?v_367 (or ?v_337 ?v_336) (or ?v_339 (< ?v_77 2)) (or ?v_336 ?v_337) ?v_366 ?v_364 (or ?v_342 ?v_341) (or ?v_344 (< ?v_80 2)) (or ?v_341 ?v_342) ?v_363 ?v_361 (or ?v_347 ?v_346) (or ?v_349 (< ?v_83 2)) (or ?v_346 ?v_347) ?v_360 ?v_358 (or ?v_352 ?v_351) (or ?v_354 (< ?v_86 2)) (or ?v_351 ?v_352) ?v_357 ?v_444 (or ?v_356 ?v_355) (or ?v_445 (< ?v_209 2)) (or ?v_355 ?v_356) (or ?v_351 (< ?v_92 1)) ?v_357 ?v_358 (or ?v_351 ?v_359) (or ?v_346 (< ?v_96 1)) ?v_360 ?v_361 (or ?v_346 ?v_362) (or ?v_341 (< ?v_100 1)) ?v_363 ?v_364 (or ?v_341 ?v_365) (or ?v_336 (< ?v_104 1)) ?v_366 ?v_367 (or ?v_336 ?v_368) (or ?v_331 (< ?v_108 1)) ?v_369 ?v_370 (or ?v_331 ?v_371) (or ?v_326 (< ?v_112 1)) ?v_372 ?v_373 (or ?v_326 ?v_374) (or ?v_321 (< ?v_116 1)) ?v_375 ?v_376 (or ?v_321 ?v_377) (or ?v_316 (< ?v_120 1)) ?v_378 ?v_379 (or ?v_316 ?v_380) (or ?v_311 (< ?v_124 1)) ?v_381 ?v_382 (or ?v_311 ?v_383) (or ?v_306 (< ?v_128 1)) ?v_384 ?v_385 (or ?v_306 ?v_386) (or ?v_301 (< ?v_132 1)) ?v_387 ?v_388 (or ?v_301 ?v_389) (or ?v_296 (< ?v_136 1)) ?v_390 ?v_391 (or ?v_296 ?v_392) (or ?v_291 (< ?v_140 1)) ?v_393 ?v_394 (or ?v_291 ?v_395) (or ?v_286 (< ?v_144 1)) ?v_396 ?v_397 (or ?v_286 ?v_398) (or ?v_281 (< ?v_148 1)) ?v_399 ?v_400 (or ?v_281 ?v_401) (or ?v_276 (< ?v_152 1)) ?v_402 ?v_403 (or ?v_276 ?v_404) (or ?v_271 (< ?v_156 1)) ?v_405 ?v_406 (or ?v_271 ?v_407) (or ?v_266 (< ?v_160 1)) ?v_408 ?v_409 (or ?v_266 ?v_410) (or ?v_261 (< ?v_164 1)) ?v_411 ?v_412 (or ?v_261 ?v_413) (or ?v_256 (< ?v_168 1)) ?v_414 ?v_415 (or ?v_256 ?v_416) (or ?v_251 (< ?v_172 1)) ?v_417 ?v_418 (or ?v_251 ?v_419) (or ?v_246 (< ?v_176 1)) ?v_420 ?v_421 (or ?v_246 ?v_422) (or ?v_241 (< ?v_180 1)) ?v_423 ?v_424 (or ?v_241 ?v_425) (or ?v_236 (< ?v_184 1)) ?v_426 ?v_427 (or ?v_236 ?v_428) (or ?v_231 (< ?v_188 1)) ?v_429 ?v_430 (or ?v_231 ?v_431) (or ?v_226 (< ?v_192 1)) ?v_432 ?v_433 (or ?v_226 ?v_434) (or ?v_221 (< ?v_196 1)) ?v_435 ?v_436 (or ?v_221 ?v_437) (or ?v_216 (< ?v_200 1)) ?v_438 ?v_439 (or ?v_216 ?v_440) (or ?v_211 (< ?v_204 1)) ?v_441 ?v_442 (or ?v_211 ?v_443) ?v_444 (or ?v_445 (> ?v_446 4))))))))))))))))))))))))))))))))))))))))))))))))))))))))))))))))))))))))))))))))))))))))))))))))))))))))))))))))))))))))))))))
(check-sat)
(exit)
